WARNING: for repeatability, setting FPU to use double precision
============================[ Problem Statistics ]=============================
|                                                                             |
|  Number of variables:           100                                         |
|  Number of clauses:             449                                         |
|  Parse time:                   0.00 s                                       |
|  Eliminated clauses:           0.00 Mb                                      |
|  Simplification time:          0.00 s                                       |
|                                                                             |
============================[ Search Statistics ]==============================
| Conflicts |          ORIGINAL         |          LEARNT          | Progress |
|           |    Vars  Clauses Literals |    Limit  Clauses Lit/Cl |          |
===============================================================================
|       100 |      97      445     1354 |      163      100      7 |  0.010 % |
|       250 |      96      435     1323 |      179      108      6 |  1.051 % |
===============================================================================
restarts              : 3
conflicts             : 293            (98554 /sec)
decisions             : 374            (0.00 % random) (125799 /sec)
propagations          : 6822           (2294652 /sec)
conflict literals     : 1669           (22.59 % deleted)
Memory used           : 13.00 MB
CPU time              : 0.002973 s

SATISFIABLE
